\ SCIP STATISTICS
\   Problem name     : bell5.lp
\   Variables        : 162 (30 binary, 28 integer, 0 implicit integer, 104 continuous)
\   Constraints      : 207
\   Obj. scale       : 1
\   Obj. offset      : 0
Minimize
 Obj: +43000 d16 +43000 d1 +43000 d2 +43000 d3 +43000 d4 +43000 d5 +43000 d6 +43000 d7 +43000 d9 +43000 d10
      +43000 d11 +43000 d12 +43000 d13 +43000 d14 +10000 g14 +10000 g13 +10000 g12 +10000 g11 +10000 g10
      +10000 g9 +10000 g7 +10000 g6 +10000 g5 +10000 g4 +10000 g3 +10000 g2 +10000 g1 +58000 h16 +58000 h14
      +58000 h13 +59000 h12 +59000 h11 +59000 h10 +60000 h9 +59000 h7 +59000 h6 +59000 h5 +59000 h4 +58000 h3
      +58000 h2 +58000 h1 +10000 g16 +2.45645 b1 +2.03962 b2 +1.41693 b3 +5.02605 b4 +5.80423 b5 +3.66095 b6
      +3.9201 b7 +4.8034 b8 +2.94336 b9 +3.60182 b10 +1.87245 b11 +3.03169 b12 +0.53655 b13 +2.555 b14
      +2.07977 b15 +0.1825 b16 +58.0423 a5 +36.6095 a6 +39.201 a7 +48.034 a8 +29.4336 a9 +36.0182 a10
      +18.7245 a11 +30.3169 a12 +5.3655 a13 +25.55 a14 +20.7977 a15 +24.5645 a1 +20.3962 a2 +14.1693 a3
      +50.2605 a4 +1.825 a16 +77264064.9152 y0 +77264064.9152 y1 +77264064.9152 y2 +77264064.9152 y3 +77264064.9152 y4
      +77264064.9152 y5 +77264064.9152 y6 +77264064.9152 y7 +77264064.9152 y8 +77264064.9152 y9 +77264064.9152 y10
      +77264064.9152 y11 +77264064.9152 y12 +77264064.9152 y13 +77264064.9152 y14 +77264064.9152 y15 +77264064.9152 y16
      +77264064.9152 y17 +77264064.9152 y18 +77264064.9152 y19 +77264064.9152 y20 +77264064.9152 y21 +77264064.9152 y22
      +77264064.9152 y23 +77264064.9152 y24 +77264064.9152 y25 +77264064.9152 y26 +77264064.9152 y27 +77264064.9152 y28
      +77264064.9152 y29 +77264064.9152 y30 +77264064.9152 y31 +77264064.9152 y32 +77264064.9152 y33 +77264064.9152 y34
      +77264064.9152 y35 +77264064.9152 y36 +77264064.9152 y37 +77264064.9152 y38 +77264064.9152 y39 +77264064.9152 y40
      +77264064.9152 y41 +77264064.9152 y42 +77264064.9152 y43 +77264064.9152 y44 +77264064.9152 y45 +77264064.9152 y46
      +77264064.9152 y47 +77264064.9152 y48 +77264064.9152 y49 +77264064.9152 y50 +77264064.9152 y51 +77264064.9152 y52
      +77264064.9152 y53 +77264064.9152 y54 +77264064.9152 y55 +77264064.9152 y56 +77264064.9152 y57
Subject to
 A1: -1 c1 +1 c2 <= +0
 A2: -1 c2 +1 c3 <= +0
 A3: -1 c3 +1 c4 <= +0
 A4: -1 c4 +1 c5 <= +0
 A5: -1 c5 +1 c6 <= +0
 A6: -1 c5 +1 c7 <= +0
 A7: -1 c7 +1 c8 <= +0
 A8: -1 c8 +1 c9 <= +0
 A9: -1 c4 +1 c10 <= +0
 A10: -1 c10 +1 c11 <= +0
 A11: -1 c11 +1 c12 <= +0
 A12: -1 c2 +1 c13 <= +0
 A13: -1 c13 +1 c14 <= +0
 A14: -1 c14 +1 c15 <= +0
 A15: -1 c1 +1 c16 <= +0
 B1: -20 c1 +1 d1 +1 h1 <= +0
 B2: -20 c2 +1 d2 +1 h2 <= +0
 B3: -20 c3 +1 d3 +1 h3 <= +0
 B4: -20 c4 +1 d4 +1 h4 <= +0
 B5: -20 c5 +1 d5 +1 h5 <= +0
 B6: -20 c6 +1 d6 +1 h6 <= +0
 B7: -20 c7 +1 d7 +1 h7 <= +0
 B9: -20 c9 +1 d9 +1 h9 <= +0
 B10: -20 c10 +1 d10 +1 h10 <= +0
 B11: -20 c11 +1 d11 +1 h11 <= +0
 B12: -20 c12 +1 d12 +1 h12 <= +0
 B13: -20 c13 +1 d13 +1 h13 <= +0
 B14: -20 c14 +1 d14 +1 h14 <= +0
 B16: -20 c16 +1 d16 +1 h16 <= +0
 C1: -672 d1 -1344 h1 -1 b1 +1 b2 +1 b16 +1 f1 <= +0
 C2: -672 d2 -1344 h2 -1 b2 +1 b3 +1 b13 +1 f2 <= +0
 C3: -672 d3 -1344 h3 -1 b3 +1 b4 +1 f3 <= +0
 C4: -672 d4 -1344 h4 -1 b4 +1 b5 +1 b10 +1 f4 <= +0
 C5: -672 d5 -1344 h5 -1 b5 +1 b6 +1 b7 +1 f5 <= +0
 C6: -672 d6 -1344 h6 -1 b6 +1 f6 <= +0
 C7: -672 d7 -1344 h7 -1 b7 +1 b8 +1 f7 <= +0
 C8: -1 b8 +1 b9 <= +0
 C9: -672 d9 -1344 h9 -1 b9 +1 f9 <= +0
 C10: -672 d10 -1344 h10 -1 b10 +1 b11 +1 f10 <= +0
 C11: -672 d11 -1344 h11 -1 b11 +1 b12 +1 f11 <= +0
 C12: -672 d12 -1344 h12 -1 b12 +1 f12 <= +0
 C13: -672 d13 -1344 h13 -1 b13 +1 b14 +1 f13 <= +0
 C14: -672 d14 -1344 h14 -1 b14 +1 b15 +1 f14 <= +0
 C15: -1 b15 <= +0
 C16: -672 d16 -1344 h16 -1 b16 +1 f16 <= +0
 D1: -24 g1 +1 f1 <= +0
 D2: -24 g2 +1 f2 <= +0
 D3: -24 g3 +1 f3 <= +0
 D4: -24 g4 +1 f4 <= +0
 D5: -24 g5 +1 f5 <= +0
 D6: -24 g6 +1 f6 <= +0
 D7: -24 g7 +1 f7 <= +0
 D9: -24 g9 +1 f9 <= +0
 D10: -24 g10 +1 f10 <= +0
 D11: -24 g11 +1 f11 <= +0
 D12: -24 g12 +1 f12 <= +0
 D13: -24 g13 +1 f13 <= +0
 D14: -24 g14 +1 f14 <= +0
 D16: -24 g16 +1 f16 <= +0
 E1: -1 a1 +1 a2 +1 a16 -1 f1 <= -800
 E2: -1 a2 +1 a3 +1 a13 -1 f2 <= -3100
 E3: -1 a3 +1 a4 -1 f3 <= -50
 E4: -1 a4 +1 a5 +1 a10 -1 f4 <= -40
 E5: -1 a5 +1 a6 +1 a7 -1 f5 <= -900
 E6: -1 a6 -1 f6 <= -40
 E7: -1 a7 +1 a8 -1 f7 <= -7150
 E8: -1 a8 +1 a9 <= -4800
 E9: -1 a9 -1 f9 <= -3000
 E10: -1 a10 +1 a11 -1 f10 <= -250
 E11: -1 a11 +1 a12 -1 f11 <= -400
 E12: -1 a12 -1 f12 <= -1000
 E13: -1 a13 +1 a14 -1 f13 <= -4000
 E14: -1 a14 +1 a15 -1 f14 <= -90
 E15: -1 a15 <= -700
 E16: -1 a16 -1 f16 <= -24
 F0: +1 c1 +0.000833 a1 +8.3e-05 b1 <= +8
 F1: +1 c2 +0.000833 a2 +8.3e-05 b2 <= +8
 F2: +1 c3 +0.000833 a3 +8.3e-05 b3 <= +8
 F3: +1 c4 +0.000833 a4 +8.3e-05 b4 <= +8
 F4: +1 c5 +0.000833 a5 +8.3e-05 b5 <= +1
 F5: +1 c6 +0.000833 a6 +8.3e-05 b6 <= +1
 F6: +1 c7 +0.000833 a7 +8.3e-05 b7 <= +13
 F7: +1 c8 +0.000833 a8 +8.3e-05 b8 <= +13
 F8: +1 c9 +0.000833 a9 +8.3e-05 b9 <= +1
 F9: +1 c10 +0.000833 a10 +8.3e-05 b10 <= +1
 F10: +1 c11 +0.000833 a11 +8.3e-05 b11 <= +13
 F11: +1 c12 +0.000833 a12 +8.3e-05 b12 <= +13
 F12: +1 c13 +0.000833 a13 +8.3e-05 b13 <= +8
 F13: +1 c14 +0.000833 a14 +8.3e-05 b14 <= +8
 F14: +1 c15 +0.000833 a15 +8.3e-05 b15 <= +2
 F15: +1 c16 +0.000833 a16 +8.3e-05 b16 <= +2
 y0_1: -1 y0 +1 d16 <= +0
 y0_2: -1 y0 -1 d16 <= +0
 y1_1: -1 y1 +1 c1 <= +1
 y1_2: -1 y1 -1 c1 <= -1
 y2_1: -1 y2 +1 c2 <= +1
 y2_2: -1 y2 -1 c2 <= -1
 y3_1: -1 y3 +1 c3 <= +1
 y3_2: -1 y3 -1 c3 <= -1
 y4_1: -1 y4 +1 c4 <= +0
 y4_2: -1 y4 -1 c4 <= +0
 y5_1: -1 y5 +1 c5 <= +1
 y5_2: -1 y5 -1 c5 <= -1
 y6_1: -1 y6 +1 c6 <= +0
 y6_2: -1 y6 -1 c6 <= +0
 y7_1: -1 y7 +1 c7 <= +1
 y7_2: -1 y7 -1 c7 <= -1
 y8_1: -1 y8 +1 c8 <= +0
 y8_2: -1 y8 -1 c8 <= +0
 y9_1: -1 y9 +1 c9 <= +0
 y9_2: -1 y9 -1 c9 <= +0
 y10_1: -1 y10 +1 c10 <= +0
 y10_2: -1 y10 -1 c10 <= +0
 y11_1: -1 y11 +1 c11 <= +0
 y11_2: -1 y11 -1 c11 <= +0
 y12_1: -1 y12 +1 c12 <= +0
 y12_2: -1 y12 -1 c12 <= +0
 y13_1: -1 y13 +1 c13 <= +1
 y13_2: -1 y13 -1 c13 <= -1
 y14_1: -1 y14 +1 c14 <= +1
 y14_2: -1 y14 -1 c14 <= -1
 y15_1: -1 y15 +1 c15 <= +0
 y15_2: -1 y15 -1 c15 <= +0
 y16_1: -1 y16 +1 c16 <= +1
 y16_2: -1 y16 -1 c16 <= -1
 y17_1: -1 y17 +1 d1 <= +0
 y17_2: -1 y17 -1 d1 <= +0
 y18_1: -1 y18 +1 d2 <= +0
 y18_2: -1 y18 -1 d2 <= +0
 y19_1: -1 y19 +1 d3 <= +0
 y19_2: -1 y19 -1 d3 <= +0
 y20_1: -1 y20 +1 d4 <= +0
 y20_2: -1 y20 -1 d4 <= +0
 y21_1: -1 y21 +1 d5 <= +0
 y21_2: -1 y21 -1 d5 <= +0
 y22_1: -1 y22 +1 d6 <= +0
 y22_2: -1 y22 -1 d6 <= +0
 y23_1: -1 y23 +1 d7 <= +0
 y23_2: -1 y23 -1 d7 <= +0
 y24_1: -1 y24 +1 d9 <= +0
 y24_2: -1 y24 -1 d9 <= +0
 y25_1: -1 y25 +1 d10 <= +0
 y25_2: -1 y25 -1 d10 <= +0
 y26_1: -1 y26 +1 d11 <= +0
 y26_2: -1 y26 -1 d11 <= +0
 y27_1: -1 y27 +1 d12 <= +0
 y27_2: -1 y27 -1 d12 <= +0
 y28_1: -1 y28 +1 d13 <= +0
 y28_2: -1 y28 -1 d13 <= +0
 y29_1: -1 y29 +1 d14 <= +0
 y29_2: -1 y29 -1 d14 <= +0
 y30_1: -1 y30 +1 g14 <= +19
 y30_2: -1 y30 -1 g14 <= -19
 y31_1: -1 y31 +1 g13 <= +0
 y31_2: -1 y31 -1 g13 <= +0
 y32_1: -1 y32 +1 g12 <= +41
 y32_2: -1 y32 -1 g12 <= -41
 y33_1: -1 y33 +1 g11 <= +17
 y33_2: -1 y33 -1 g11 <= -17
 y34_1: -1 y34 +1 g10 <= +10
 y34_2: -1 y34 -1 g10 <= -10
 y35_1: -1 y35 +1 g9 <= +1
 y35_2: -1 y35 -1 g9 <= -1
 y36_1: -1 y36 +1 g7 <= +498
 y36_2: -1 y36 -1 g7 <= -498
 y37_1: -1 y37 +1 g6 <= +2
 y37_2: -1 y37 -1 g6 <= -2
 y38_1: -1 y38 +1 g5 <= +38
 y38_2: -1 y38 -1 g5 <= -38
 y39_1: -1 y39 +1 g4 <= +2
 y39_2: -1 y39 -1 g4 <= -2
 y40_1: -1 y40 +1 g3 <= +0
 y40_2: -1 y40 -1 g3 <= +0
 y41_1: -1 y41 +1 g2 <= +0
 y41_2: -1 y41 -1 g2 <= +0
 y42_1: -1 y42 +1 g1 <= +0
 y42_2: -1 y42 -1 g1 <= +0
 y43_1: -1 y43 +1 h16 <= +0
 y43_2: -1 y43 -1 h16 <= +0
 y44_1: -1 y44 +1 h14 <= +0
 y44_2: -1 y44 -1 h14 <= +0
 y45_1: -1 y45 +1 h13 <= +0
 y45_2: -1 y45 -1 h13 <= +0
 y46_1: -1 y46 +1 h12 <= +0
 y46_2: -1 y46 -1 h12 <= +0
 y47_1: -1 y47 +1 h11 <= +0
 y47_2: -1 y47 -1 h11 <= +0
 y48_1: -1 y48 +1 h10 <= +0
 y48_2: -1 y48 -1 h10 <= +0
 y49_1: -1 y49 +1 h9 <= +0
 y49_2: -1 y49 -1 h9 <= +0
 y50_1: -1 y50 +1 h7 <= +11
 y50_2: -1 y50 -1 h7 <= -11
 y51_1: -1 y51 +1 h6 <= +0
 y51_2: -1 y51 -1 h6 <= +0
 y52_1: -1 y52 +1 h5 <= +1
 y52_2: -1 y52 -1 h5 <= -1
 y53_1: -1 y53 +1 h4 <= +1
 y53_2: -1 y53 -1 h4 <= -1
 y54_1: -1 y54 +1 h3 <= +0
 y54_2: -1 y54 -1 h3 <= +0
 y55_1: -1 y55 +1 h2 <= +0
 y55_2: -1 y55 -1 h2 <= +0
 y56_1: -1 y56 +1 h1 <= +0
 y56_2: -1 y56 -1 h1 <= +0
 y57_1: -1 y57 +1 g16 <= +0
 y57_2: -1 y57 -1 g16 <= +0
Bounds
 0 <= d16 <= 1
 0 <= c1 <= 1
 0 <= c2 <= 1
 0 <= c3 <= 1
 0 <= c4 <= 1
 0 <= c5 <= 1
 0 <= c6 <= 1
 0 <= c7 <= 1
 0 <= c8 <= 1
 0 <= c9 <= 1
 0 <= c10 <= 1
 0 <= c11 <= 1
 0 <= c12 <= 1
 0 <= c13 <= 1
 0 <= c14 <= 1
 0 <= c15 <= 1
 0 <= c16 <= 1
 0 <= d1 <= 1
 0 <= d2 <= 1
 0 <= d3 <= 1
 0 <= d4 <= 1
 0 <= d5 <= 1
 0 <= d6 <= 1
 0 <= d7 <= 1
 0 <= d9 <= 1
 0 <= d10 <= 1
 0 <= d11 <= 1
 0 <= d12 <= 1
 0 <= d13 <= 1
 0 <= d14 <= 1
 0 <= g14 <= 100
 0 <= g13 <= 100
 0 <= g12 <= 100
 0 <= g11 <= 100
 0 <= g10 <= 100
 0 <= g9 <= 1000
 0 <= g7 <= 1000
 0 <= g6 <= 1000
 0 <= g5 <= 1000
 0 <= g4 <= 1000
 0 <= g3 <= 1000
 0 <= g2 <= 1000
 0 <= g1 <= 1000
 0 <= h16 <= 1000
 0 <= h14 <= 1000
 0 <= h13 <= 1000
 0 <= h12 <= 1000
 0 <= h11 <= 1000
 0 <= h10 <= 1000
 0 <= h9 <= 10000
 0 <= h7 <= 10000
 0 <= h6 <= 10000
 0 <= h5 <= 10000
 0 <= h4 <= 10000
 0 <= h3 <= 10000
 0 <= h2 <= 10000
 0 <= h1 <= 10000
 0 <= g16 <= 100
Binaries
 d16 c1 c2 c3 c4 c5 c6 c7 c8 c9 c10 c11 c12 c13 c14 c15 c16 d1 d2 d3 d4 d5 d6 d7 d9 d10 d11 d12 d13 d14
Generals
 g14 g13 g12 g11 g10 g9 g7 g6 g5 g4 g3 g2 g1 h16 h14 h13 h12 h11 h10 h9 h7 h6 h5 h4 h3 h2 h1 g16
End
